\ Model cognitive-networks
\ LP format - for model browsing. Use MPS format to capture full model detail.
Minimize
  1.623e-005 CE_0_6_5 + 1.623e-005 CE_0_6_6 + 1.623e-005 CE_0_6_7
   + 1.623e-005 CE_0_6_8 + 1.623e-005 CE_0_6_9 + 1.623e-005 CE_0_6_10
   + 1.623e-005 CE_0_6_11 + 1.623e-005 CE_0_6_12 + 1.623e-005 CE_0_6_13
   + 1.623e-005 CE_0_6_14 + 1.623e-005 CE_0_6_15 + 1.623e-005 CE_0_6_16
   + 1.623e-005 CE_0_6_17 + 1.623e-005 CE_0_6_18 + 1.623e-005 CE_0_6_19
   + 1.623e-005 CE_0_6_20 + 1.86537e-005 CE_1_6_6 + 1.86537e-005 CE_1_6_7
   + 1.86537e-005 CE_1_6_8 + 1.86537e-005 CE_1_6_9 + 1.86537e-005 CE_1_6_10
   + 1.86537e-005 CE_1_6_11 + 1.86537e-005 CE_1_6_12
   + 1.86537e-005 CE_1_6_13 + 1.86537e-005 CE_1_6_14
   + 1.86537e-005 CE_1_6_15 + 1.86537e-005 CE_1_6_16
   + 1.86537e-005 CE_1_6_17 + 1.86537e-005 CE_1_6_18
   + 1.86537e-005 CE_1_6_19 + 1.86537e-005 CE_1_6_20
   + 5.04146e-005 CE_2_6_6 + 5.04146e-005 CE_2_6_7 + 5.04146e-005 CE_2_6_8
   + 5.04146e-005 CE_2_6_9 + 5.04146e-005 CE_2_6_10
   + 5.04146e-005 CE_2_6_11 + 5.04146e-005 CE_2_6_12
   + 5.04146e-005 CE_2_6_13 + 5.04146e-005 CE_2_6_14
   + 5.04146e-005 CE_2_6_15 + 5.04146e-005 CE_2_6_16
   + 5.04146e-005 CE_2_6_17 + 5.04146e-005 CE_2_6_18
   + 5.04146e-005 CE_2_6_19 + 5.04146e-005 CE_2_6_20
   + 1.10194e-005 CE_3_6_6 + 1.10194e-005 CE_3_6_7 + 1.10194e-005 CE_3_6_8
   + 1.10194e-005 CE_3_6_9 + 1.10194e-005 CE_3_6_10
   + 1.10194e-005 CE_3_6_11 + 1.10194e-005 CE_3_6_12
   + 1.10194e-005 CE_3_6_13 + 1.10194e-005 CE_3_6_14
   + 1.10194e-005 CE_3_6_15 + 1.10194e-005 CE_3_6_16
   + 1.10194e-005 CE_3_6_17 + 1.10194e-005 CE_3_6_18
   + 1.10194e-005 CE_3_6_19 + 1.10194e-005 CE_3_6_20
   + 1.9294624181237933e-004 CE_4_6_6 + 1.9294624181237933e-004 CE_4_6_7
   + 1.9294624181237933e-004 CE_4_6_8 + 1.9294624181237933e-004 CE_4_6_9
   + 1.9294624181237933e-004 CE_4_6_10 + 1.9294624181237933e-004 CE_4_6_11
   + 1.9294624181237933e-004 CE_4_6_12 + 1.9294624181237933e-004 CE_4_6_13
   + 1.9294624181237933e-004 CE_4_6_14 + 1.9294624181237933e-004 CE_4_6_15
   + 1.9294624181237933e-004 CE_4_6_16 + 1.9294624181237933e-004 CE_4_6_17
   + 1.9294624181237933e-004 CE_4_6_18 + 1.9294624181237933e-004 CE_4_6_19
   + 1.9294624181237933e-004 CE_4_6_20 + 1.9526552941721343e-004 CE_5_6_6
   + 1.9526552941721343e-004 CE_5_6_7 + 1.9526552941721343e-004 CE_5_6_8
   + 1.9526552941721343e-004 CE_5_6_9 + 1.9526552941721343e-004 CE_5_6_10
   + 1.9526552941721343e-004 CE_5_6_11 + 1.9526552941721343e-004 CE_5_6_12
   + 1.9526552941721343e-004 CE_5_6_13 + 1.9526552941721343e-004 CE_5_6_14
   + 1.9526552941721343e-004 CE_5_6_15 + 1.9526552941721343e-004 CE_5_6_16
   + 1.9526552941721343e-004 CE_5_6_17 + 1.9526552941721343e-004 CE_5_6_18
   + 1.9526552941721343e-004 CE_5_6_19 + 1.9526552941721343e-004 CE_5_6_20
   + 1.15099e-005 CE_6_6_6 + 1.15099e-005 CE_6_6_7 + 1.15099e-005 CE_6_6_8
   + 1.15099e-005 CE_6_6_9 + 1.15099e-005 CE_6_6_10
   + 1.15099e-005 CE_6_6_11 + 1.15099e-005 CE_6_6_12
   + 1.15099e-005 CE_6_6_13 + 1.15099e-005 CE_6_6_14
   + 1.15099e-005 CE_6_6_15 + 1.15099e-005 CE_6_6_16
   + 1.15099e-005 CE_6_6_17 + 1.15099e-005 CE_6_6_18
   + 1.15099e-005 CE_6_6_19 + 1.15099e-005 CE_6_6_20
   + 8.90678e-006 CE_7_6_6 + 8.90678e-006 CE_7_6_7 + 8.90678e-006 CE_7_6_8
   + 8.90678e-006 CE_7_6_9 + 8.90678e-006 CE_7_6_10
   + 8.90678e-006 CE_7_6_11 + 8.90678e-006 CE_7_6_12
   + 8.90678e-006 CE_7_6_13 + 8.90678e-006 CE_7_6_14
   + 8.90678e-006 CE_7_6_15 + 8.90678e-006 CE_7_6_16
   + 8.90678e-006 CE_7_6_17 + 8.90678e-006 CE_7_6_18
   + 8.90678e-006 CE_7_6_19 + 8.90678e-006 CE_7_6_20 + 1.6169e-005 CE_8_6_6
   + 1.6169e-005 CE_8_6_7 + 1.6169e-005 CE_8_6_8 + 1.6169e-005 CE_8_6_9
   + 1.6169e-005 CE_8_6_10 + 1.6169e-005 CE_8_6_11 + 1.6169e-005 CE_8_6_12
   + 1.6169e-005 CE_8_6_13 + 1.6169e-005 CE_8_6_14 + 1.6169e-005 CE_8_6_15
   + 1.6169e-005 CE_8_6_16 + 1.6169e-005 CE_8_6_17 + 1.6169e-005 CE_8_6_18
   + 1.6169e-005 CE_8_6_19 + 1.6169e-005 CE_8_6_20 + 5.28014e-005 CE_9_6_6
   + 5.28014e-005 CE_9_6_7 + 5.28014e-005 CE_9_6_8 + 5.28014e-005 CE_9_6_9
   + 5.28014e-005 CE_9_6_10 + 5.28014e-005 CE_9_6_11
   + 5.28014e-005 CE_9_6_12 + 5.28014e-005 CE_9_6_13
   + 5.28014e-005 CE_9_6_14 + 5.28014e-005 CE_9_6_15
   + 5.28014e-005 CE_9_6_16 + 5.28014e-005 CE_9_6_17
   + 5.28014e-005 CE_9_6_18 + 5.28014e-005 CE_9_6_19
   + 5.28014e-005 CE_9_6_20
Subject To
 Configuração_única_para_CE_0: CE_0_6_5 + CE_0_6_6 + CE_0_6_7 + CE_0_6_8
   + CE_0_6_9 + CE_0_6_10 + CE_0_6_11 + CE_0_6_12 + CE_0_6_13 + CE_0_6_14
   + CE_0_6_15 + CE_0_6_16 + CE_0_6_17 + CE_0_6_18 + CE_0_6_19 + CE_0_6_20
   = 1
 Configuração_única_para_CE_1: CE_1_6_6 + CE_1_6_7 + CE_1_6_8 + CE_1_6_9
   + CE_1_6_10 + CE_1_6_11 + CE_1_6_12 + CE_1_6_13 + CE_1_6_14 + CE_1_6_15
   + CE_1_6_16 + CE_1_6_17 + CE_1_6_18 + CE_1_6_19 + CE_1_6_20 = 1
 Configuração_única_para_CE_2: CE_2_6_6 + CE_2_6_7 + CE_2_6_8 + CE_2_6_9
   + CE_2_6_10 + CE_2_6_11 + CE_2_6_12 + CE_2_6_13 + CE_2_6_14 + CE_2_6_15
   + CE_2_6_16 + CE_2_6_17 + CE_2_6_18 + CE_2_6_19 + CE_2_6_20 = 1
 Configuração_única_para_CE_3: CE_3_6_6 + CE_3_6_7 + CE_3_6_8 + CE_3_6_9
   + CE_3_6_10 + CE_3_6_11 + CE_3_6_12 + CE_3_6_13 + CE_3_6_14 + CE_3_6_15
   + CE_3_6_16 + CE_3_6_17 + CE_3_6_18 + CE_3_6_19 + CE_3_6_20 = 1
 Configuração_única_para_CE_4: CE_4_6_6 + CE_4_6_7 + CE_4_6_8 + CE_4_6_9
   + CE_4_6_10 + CE_4_6_11 + CE_4_6_12 + CE_4_6_13 + CE_4_6_14 + CE_4_6_15
   + CE_4_6_16 + CE_4_6_17 + CE_4_6_18 + CE_4_6_19 + CE_4_6_20 = 1
 Configuração_única_para_CE_5: CE_5_6_6 + CE_5_6_7 + CE_5_6_8 + CE_5_6_9
   + CE_5_6_10 + CE_5_6_11 + CE_5_6_12 + CE_5_6_13 + CE_5_6_14 + CE_5_6_15
   + CE_5_6_16 + CE_5_6_17 + CE_5_6_18 + CE_5_6_19 + CE_5_6_20 = 1
 Configuração_única_para_CE_6: CE_6_6_6 + CE_6_6_7 + CE_6_6_8 + CE_6_6_9
   + CE_6_6_10 + CE_6_6_11 + CE_6_6_12 + CE_6_6_13 + CE_6_6_14 + CE_6_6_15
   + CE_6_6_16 + CE_6_6_17 + CE_6_6_18 + CE_6_6_19 + CE_6_6_20 = 1
 Configuração_única_para_CE_7: CE_7_6_6 + CE_7_6_7 + CE_7_6_8 + CE_7_6_9
   + CE_7_6_10 + CE_7_6_11 + CE_7_6_12 + CE_7_6_13 + CE_7_6_14 + CE_7_6_15
   + CE_7_6_16 + CE_7_6_17 + CE_7_6_18 + CE_7_6_19 + CE_7_6_20 = 1
 Configuração_única_para_CE_8: CE_8_6_6 + CE_8_6_7 + CE_8_6_8 + CE_8_6_9
   + CE_8_6_10 + CE_8_6_11 + CE_8_6_12 + CE_8_6_13 + CE_8_6_14 + CE_8_6_15
   + CE_8_6_16 + CE_8_6_17 + CE_8_6_18 + CE_8_6_19 + CE_8_6_20 = 1
 Configuração_única_para_CE_9: CE_9_6_6 + CE_9_6_7 + CE_9_6_8 + CE_9_6_9
   + CE_9_6_10 + CE_9_6_11 + CE_9_6_12 + CE_9_6_13 + CE_9_6_14 + CE_9_6_15
   + CE_9_6_16 + CE_9_6_17 + CE_9_6_18 + CE_9_6_19 + CE_9_6_20 = 1
Bounds
Binaries
 CE_0_6_5 CE_0_6_6 CE_0_6_7 CE_0_6_8 CE_0_6_9 CE_0_6_10 CE_0_6_11 CE_0_6_12
 CE_0_6_13 CE_0_6_14 CE_0_6_15 CE_0_6_16 CE_0_6_17 CE_0_6_18 CE_0_6_19
 CE_0_6_20 CE_1_6_6 CE_1_6_7 CE_1_6_8 CE_1_6_9 CE_1_6_10 CE_1_6_11
 CE_1_6_12 CE_1_6_13 CE_1_6_14 CE_1_6_15 CE_1_6_16 CE_1_6_17 CE_1_6_18
 CE_1_6_19 CE_1_6_20 CE_2_6_6 CE_2_6_7 CE_2_6_8 CE_2_6_9 CE_2_6_10
 CE_2_6_11 CE_2_6_12 CE_2_6_13 CE_2_6_14 CE_2_6_15 CE_2_6_16 CE_2_6_17
 CE_2_6_18 CE_2_6_19 CE_2_6_20 CE_3_6_6 CE_3_6_7 CE_3_6_8 CE_3_6_9
 CE_3_6_10 CE_3_6_11 CE_3_6_12 CE_3_6_13 CE_3_6_14 CE_3_6_15 CE_3_6_16
 CE_3_6_17 CE_3_6_18 CE_3_6_19 CE_3_6_20 CE_4_6_6 CE_4_6_7 CE_4_6_8
 CE_4_6_9 CE_4_6_10 CE_4_6_11 CE_4_6_12 CE_4_6_13 CE_4_6_14 CE_4_6_15
 CE_4_6_16 CE_4_6_17 CE_4_6_18 CE_4_6_19 CE_4_6_20 CE_5_6_6 CE_5_6_7
 CE_5_6_8 CE_5_6_9 CE_5_6_10 CE_5_6_11 CE_5_6_12 CE_5_6_13 CE_5_6_14
 CE_5_6_15 CE_5_6_16 CE_5_6_17 CE_5_6_18 CE_5_6_19 CE_5_6_20 CE_6_6_6
 CE_6_6_7 CE_6_6_8 CE_6_6_9 CE_6_6_10 CE_6_6_11 CE_6_6_12 CE_6_6_13
 CE_6_6_14 CE_6_6_15 CE_6_6_16 CE_6_6_17 CE_6_6_18 CE_6_6_19 CE_6_6_20
 CE_7_6_6 CE_7_6_7 CE_7_6_8 CE_7_6_9 CE_7_6_10 CE_7_6_11 CE_7_6_12
 CE_7_6_13 CE_7_6_14 CE_7_6_15 CE_7_6_16 CE_7_6_17 CE_7_6_18 CE_7_6_19
 CE_7_6_20 CE_8_6_6 CE_8_6_7 CE_8_6_8 CE_8_6_9 CE_8_6_10 CE_8_6_11
 CE_8_6_12 CE_8_6_13 CE_8_6_14 CE_8_6_15 CE_8_6_16 CE_8_6_17 CE_8_6_18
 CE_8_6_19 CE_8_6_20 CE_9_6_6 CE_9_6_7 CE_9_6_8 CE_9_6_9 CE_9_6_10
 CE_9_6_11 CE_9_6_12 CE_9_6_13 CE_9_6_14 CE_9_6_15 CE_9_6_16 CE_9_6_17
 CE_9_6_18 CE_9_6_19 CE_9_6_20
End
